k = 18;
b = 9;
AtomicConstraints =  [|
1, 14|
	1, 6|
	1, 13|
	1, 7|
	1, 8|
	1, 17|
	1, 9|
	1, 12|
	1, 15|
	1, 11|
	1, 16|
	1, 18|
	1, 10|
	2, 14|
	2, 6|
	2, 13|
	2, 17|
	2, 9|
	2, 12|
	2, 15|
	2, 11|
	2, 16|
	2, 18|
	2, 10|
	3, 6|
	3, 13|
	3, 17|
	3, 9|
	3, 11|
	3, 16|
	3, 18|
	3, 10|
	4, 6|
	4, 13|
	4, 17|
	4, 9|
	4, 11|
	4, 16|
	4, 18|
	4, 10|
	5, 6|
	5, 17|
	5, 9|
	5, 11|
	5, 16|
	5, 18|
	5, 10|
	14, 12|
	14, 15|
	14, 11|
	14, 16|
	6, 16|
	6, 18|
	6, 10|
	13, 11|
	13, 16|
	13, 18|
	13, 10|
	7, 14|
	7, 6|
	7, 13|
	7, 8|
	7, 12|
	7, 15|
	7, 11|
	7, 16|
	7, 18|
	7, 10|
	8, 14|
	8, 6|
	8, 13|
	8, 12|
	8, 15|
	8, 11|
	8, 16|
	8, 18|
	8, 10|
	17, 9|
	17, 16|
	17, 18|
	17, 10|
	9, 16|
	9, 18|
	9, 10|
	12, 15|
	18, 10|];
DisjunctiveConstraints =  [|1, 14, 1, 5|
	1, 7, 16, 1|
	2, 1, 2, 3|
	2, 7, 16, 2|
	2, 8, 17, 2|
	2, 12, 2, 3|
	2, 15, 2, 6|
	3, 2, 3, 4|
	4, 3, 4, 5|
	4, 14, 5, 4|];
SoftAtomicConstraints =  [|
1, 2|
2, 3|
3, 4|
4, 5|
15, 10|
12, 11|
14, 13|
11, 16|
16, 18|];
DirectSuccessors =  [];
